(set-logic QF_NRA)
(set-info :source |Benchmarks generated from hycomp (https://es-static.fbk.eu/tools/hycomp/). BMC instances of non-linear hybrid automata taken from: Alessandro Cimatti, Sergio Mover, Stefano Tonetta, A quantifier-free SMT encoding of non-linear hybrid automata, FMCAD 2012 and Alessandro Cimatti, Sergio Mover, Stefano Tonetta, Quantier-free encoding of invariants for Hybrid Systems, Formal Methods in System Design. This instance solves a BMC problem of depth 2 and uses the encoding obtained with quantifier elimination using redlog encoding. Contacts: Sergio Mover (mover@fbk.eu), Stefano Tonetta (tonettas@fbk.eu), Alessandro Cimatti (cimatti@fbk.eu).|)
(set-info :smt-lib-version 2.0)
(set-info :category "industrial")
(set-info :status unsat)
;; MathSAT API call trace
;; generated on Mon Mar 19 10:47:10 2012
(declare-fun b.EVENT.0__AT0 () Bool)
(declare-fun b.time__AT1 () Real)
(declare-fun b.time__AT2 () Real)
(declare-fun b.y__AT0 () Real)
(declare-fun b.delta__AT2 () Real)
(declare-fun b.counter.0__AT0 () Bool)
(declare-fun b.counter.2__AT0 () Bool)
(declare-fun b.EVENT.0__AT2 () Bool)
(declare-fun b.counter.1__AT0 () Bool)
(declare-fun b.counter.1__AT1 () Bool)
(declare-fun b.y__AT2 () Real)
(declare-fun b.EVENT.1__AT2 () Bool)
(declare-fun b.counter.2__AT1 () Bool)
(declare-fun speed_loss__AT0 () Real)
(declare-fun b.speed_y__AT0 () Real)
(declare-fun b.event_is_timed__AT1 () Bool)
(declare-fun b.counter.0__AT2 () Bool)
(declare-fun b.event_is_timed__AT0 () Bool)
(declare-fun b.counter.1__AT2 () Bool)
(declare-fun b.speed_y__AT2 () Real)
(declare-fun b.counter.3__AT1 () Bool)
(declare-fun b.counter.2__AT2 () Bool)
(declare-fun b.y__AT1 () Real)
(declare-fun b.counter.3__AT2 () Bool)
(declare-fun b.counter.0__AT1 () Bool)
(declare-fun b.counter.3__AT0 () Bool)
(declare-fun b.delta__AT1 () Real)
(declare-fun b.EVENT.0__AT1 () Bool)
(declare-fun b.EVENT.1__AT0 () Bool)
(declare-fun b.delta__AT0 () Real)
(declare-fun b.EVENT.1__AT1 () Bool)
(declare-fun b.event_is_timed__AT2 () Bool)
(declare-fun b.speed_y__AT1 () Real)
(declare-fun b.time__AT0 () Real)
(assert (let ((.def_478 (* 49.0 b.delta__AT2)))
(let ((.def_479 (* b.delta__AT2 .def_478)))
(let ((.def_480 (* (- 1.0) .def_479)))
(let ((.def_476 (* 10.0 b.speed_y__AT2)))
(let ((.def_477 (* b.delta__AT2 .def_476)))
(let ((.def_481 (+ .def_477 .def_480)))
(let ((.def_482 (* 10.0 b.y__AT2)))
(let ((.def_484 (+ .def_482 .def_481)))
(let ((.def_485 (<= 0.0 .def_484)))
(let ((.def_512 (not .def_485)))
(let ((.def_496 (* (- 49.0) b.delta__AT2)))
(let ((.def_487 (* 5.0 b.speed_y__AT2)))
(let ((.def_497 (+ .def_487 .def_496)))
(let ((.def_498 (<= 0.0 .def_497)))
(let ((.def_513 (and .def_498 .def_512)))
(let ((.def_508 (<= b.speed_y__AT2 0.0 )))
(let ((.def_454 (<= 0.0 b.y__AT2)))
(let ((.def_511 (or .def_454 .def_508)))
(let ((.def_514 (or .def_511 .def_513)))
(let ((.def_507 (<= b.y__AT2 0.0 )))
(let ((.def_509 (and .def_507 .def_508)))
(let ((.def_502 (<= .def_497 0.0 )))
(let ((.def_503 (not .def_502)))
(let ((.def_500 (= .def_484 0.0 )))
(let ((.def_501 (not .def_500)))
(let ((.def_504 (or .def_501 .def_503)))
(let ((.def_499 (or .def_485 .def_498)))
(let ((.def_505 (and .def_499 .def_504)))
(let ((.def_488 (* b.speed_y__AT2 .def_487)))
(let ((.def_489 (* 98.0 b.y__AT2)))
(let ((.def_491 (+ .def_489 .def_488)))
(let ((.def_494 (<= .def_491 0.0 )))
(let ((.def_495 (not .def_494)))
(let ((.def_506 (or .def_495 .def_505)))
(let ((.def_510 (or .def_506 .def_509)))
(let ((.def_515 (and .def_510 .def_514)))
(let ((.def_492 (<= 0.0 .def_491)))
(let ((.def_493 (not .def_492)))
(let ((.def_516 (or .def_493 .def_515)))
(let ((.def_474 (<= 0.0 b.delta__AT2)))
(let ((.def_475 (not .def_474)))
(let ((.def_486 (or .def_475 .def_485)))
(let ((.def_517 (and .def_486 .def_516)))
(let ((.def_451 (not b.EVENT.0__AT2)))
(let ((.def_449 (not b.EVENT.1__AT2)))
(let ((.def_471 (and .def_449 .def_451)))
(let ((.def_472 (not .def_471)))
(let ((.def_518 (or .def_472 .def_517)))
(let ((.def_151 (not b.counter.0__AT1)))
(let ((.def_464 (or b.counter.1__AT1 .def_151)))
(let ((.def_465 (or b.counter.2__AT1 .def_464)))
(let ((.def_139 (not b.counter.1__AT1)))
(let ((.def_459 (and .def_139 .def_151)))
(let ((.def_146 (not b.counter.2__AT1)))
(let ((.def_463 (or .def_146 .def_459)))
(let ((.def_466 (and .def_463 .def_465)))
(let ((.def_467 (or b.counter.3__AT1 .def_466)))
(let ((.def_460 (or b.counter.2__AT1 .def_459)))
(let ((.def_458 (or .def_139 .def_146)))
(let ((.def_461 (and .def_458 .def_460)))
(let ((.def_161 (not b.counter.3__AT1)))
(let ((.def_462 (or .def_161 .def_461)))
(let ((.def_468 (and .def_462 .def_467)))
(let ((.def_66 (<= speed_loss__AT0 (/ 1 2))))
(let ((.def_63 (<= (/ 1 10) speed_loss__AT0)))
(let ((.def_67 (and .def_63 .def_66)))
(let ((.def_455 (and .def_67 .def_454)))
(let ((.def_452 (or .def_449 .def_451)))
(let ((.def_9 (not b.counter.0__AT2)))
(let ((.def_6 (not b.counter.1__AT2)))
(let ((.def_442 (or .def_6 .def_9)))
(let ((.def_446 (or b.counter.3__AT2 .def_442)))
(let ((.def_443 (or b.counter.2__AT2 .def_442)))
(let ((.def_4 (not b.counter.2__AT2)))
(let ((.def_441 (or .def_4 .def_9)))
(let ((.def_444 (and .def_441 .def_443)))
(let ((.def_14 (not b.counter.3__AT2)))
(let ((.def_445 (or .def_14 .def_444)))
(let ((.def_447 (and .def_445 .def_446)))
(let ((.def_453 (and .def_447 .def_452)))
(let ((.def_456 (and .def_453 .def_455)))
(let ((.def_283 (<= 0.0 b.delta__AT1)))
(let ((.def_261 (not b.EVENT.0__AT1)))
(let ((.def_259 (not b.EVENT.1__AT1)))
(let ((.def_280 (and .def_259 .def_261)))
(let ((.def_281 (not .def_280)))
(let ((.def_437 (or .def_281 .def_283)))
(let ((.def_438 (or b.EVENT.1__AT1 .def_437)))
(let ((.def_375 (= b.counter.0__AT2 b.counter.0__AT1)))
(let ((.def_373 (= b.counter.1__AT2 b.counter.1__AT1)))
(let ((.def_371 (= b.counter.2__AT2 b.counter.2__AT1)))
(let ((.def_370 (= b.counter.3__AT2 b.counter.3__AT1)))
(let ((.def_372 (and .def_370 .def_371)))
(let ((.def_374 (and .def_372 .def_373)))
(let ((.def_376 (and .def_374 .def_375)))
(let ((.def_434 (or .def_281 .def_376)))
(let ((.def_435 (or b.EVENT.1__AT1 .def_434)))
(let ((.def_426 (* (- 5.0) b.speed_y__AT2)))
(let ((.def_305 (* (- 49.0) b.delta__AT1)))
(let ((.def_427 (+ .def_305 .def_426)))
(let ((.def_296 (* 5.0 b.speed_y__AT1)))
(let ((.def_428 (+ .def_296 .def_427)))
(let ((.def_429 (= .def_428 0.0 )))
(let ((.def_417 (* b.speed_y__AT1 b.delta__AT1)))
(let ((.def_418 (* 10.0 .def_417)))
(let ((.def_415 (* b.delta__AT1 b.delta__AT1)))
(let ((.def_416 (* (- 49.0) .def_415)))
(let ((.def_419 (+ .def_416 .def_418)))
(let ((.def_420 (* (- 10.0) b.y__AT2)))
(let ((.def_423 (+ .def_420 .def_419)))
(let ((.def_291 (* 10.0 b.y__AT1)))
(let ((.def_424 (+ .def_291 .def_423)))
(let ((.def_425 (= .def_424 0.0 )))
(let ((.def_430 (and .def_425 .def_429)))
(let ((.def_431 (or .def_281 .def_430)))
(let ((.def_381 (= b.y__AT1 b.y__AT2)))
(let ((.def_369 (= b.speed_y__AT1 b.speed_y__AT2)))
(let ((.def_412 (and .def_369 .def_381)))
(let ((.def_409 (= b.delta__AT1 0.0 )))
(let ((.def_410 (and .def_280 .def_409)))
(let ((.def_411 (not .def_410)))
(let ((.def_413 (or .def_411 .def_412)))
(let ((.def_414 (or b.EVENT.1__AT1 .def_413)))
(let ((.def_432 (and .def_414 .def_431)))
(let ((.def_391 (= b.time__AT1 b.time__AT2)))
(let ((.def_403 (and .def_381 .def_391)))
(let ((.def_404 (and .def_369 .def_403)))
(let ((.def_405 (and .def_376 .def_404)))
(let ((.def_406 (or .def_259 .def_405)))
(let ((.def_394 (* (- 1.0) b.time__AT2)))
(let ((.def_397 (+ b.delta__AT1 .def_394)))
(let ((.def_398 (+ b.time__AT1 .def_397)))
(let ((.def_399 (= .def_398 0.0 )))
(let ((.def_400 (or .def_281 .def_399)))
(let ((.def_401 (or b.EVENT.1__AT1 .def_400)))
(let ((.def_392 (or .def_280 .def_391)))
(let ((.def_393 (or b.EVENT.1__AT1 .def_392)))
(let ((.def_402 (and .def_393 .def_401)))
(let ((.def_407 (and .def_402 .def_406)))
(let ((.def_387 (= .def_281 b.event_is_timed__AT2)))
(let ((.def_385 (= b.event_is_timed__AT1 .def_280)))
(let ((.def_388 (and .def_385 .def_387)))
(let ((.def_377 (and .def_369 .def_376)))
(let ((.def_330 (<= 0.0 b.speed_y__AT1)))
(let ((.def_331 (not .def_330)))
(let ((.def_329 (= b.y__AT1 0.0 )))
(let ((.def_332 (and .def_329 .def_331)))
(let ((.def_378 (or .def_332 .def_377)))
(let ((.def_346 (or .def_9 b.counter.0__AT1)))
(let ((.def_345 (or b.counter.0__AT2 .def_151)))
(let ((.def_347 (and .def_345 .def_346)))
(let ((.def_348 (and .def_6 .def_347)))
(let ((.def_349 (or b.counter.1__AT1 .def_348)))
(let ((.def_344 (or b.counter.1__AT2 .def_139)))
(let ((.def_350 (and .def_344 .def_349)))
(let ((.def_361 (and .def_4 .def_350)))
(let ((.def_362 (or b.counter.2__AT1 .def_361)))
(let ((.def_356 (and .def_6 .def_151)))
(let ((.def_357 (or b.counter.1__AT1 .def_356)))
(let ((.def_358 (and .def_344 .def_357)))
(let ((.def_359 (and b.counter.2__AT2 .def_358)))
(let ((.def_360 (or .def_146 .def_359)))
(let ((.def_363 (and .def_360 .def_362)))
(let ((.def_364 (and b.counter.3__AT2 .def_363)))
(let ((.def_365 (or b.counter.3__AT1 .def_364)))
(let ((.def_351 (and b.counter.2__AT2 .def_350)))
(let ((.def_352 (or b.counter.2__AT1 .def_351)))
(let ((.def_340 (or b.counter.1__AT2 b.counter.1__AT1)))
(let ((.def_338 (and .def_6 b.counter.0__AT2)))
(let ((.def_339 (or .def_139 .def_338)))
(let ((.def_341 (and .def_339 .def_340)))
(let ((.def_342 (and .def_4 .def_341)))
(let ((.def_343 (or .def_146 .def_342)))
(let ((.def_353 (and .def_343 .def_352)))
(let ((.def_354 (and .def_14 .def_353)))
(let ((.def_355 (or .def_161 .def_354)))
(let ((.def_366 (and .def_355 .def_365)))
(let ((.def_334 (* (- 1.0) b.speed_y__AT1)))
(let ((.def_133 (* (- 1.0) speed_loss__AT0)))
(let ((.def_134 (+ 1.0 .def_133)))
(let ((.def_335 (* .def_134 .def_334)))
(let ((.def_337 (= .def_335 b.speed_y__AT2)))
(let ((.def_367 (and .def_337 .def_366)))
(let ((.def_333 (not .def_332)))
(let ((.def_368 (or .def_333 .def_367)))
(let ((.def_379 (and .def_368 .def_378)))
(let ((.def_382 (and .def_379 .def_381)))
(let ((.def_383 (or .def_280 .def_382)))
(let ((.def_384 (or b.EVENT.1__AT1 .def_383)))
(let ((.def_389 (and .def_384 .def_388)))
(let ((.def_408 (and .def_389 .def_407)))
(let ((.def_433 (and .def_408 .def_432)))
(let ((.def_436 (and .def_433 .def_435)))
(let ((.def_439 (and .def_436 .def_438)))
(let ((.def_440 (and .def_259 .def_439)))
(let ((.def_457 (and .def_440 .def_456)))
(let ((.def_469 (and .def_457 .def_468)))
(let ((.def_287 (* 49.0 b.delta__AT1)))
(let ((.def_288 (* b.delta__AT1 .def_287)))
(let ((.def_289 (* (- 1.0) .def_288)))
(let ((.def_285 (* 10.0 b.speed_y__AT1)))
(let ((.def_286 (* b.delta__AT1 .def_285)))
(let ((.def_290 (+ .def_286 .def_289)))
(let ((.def_293 (+ .def_291 .def_290)))
(let ((.def_294 (<= 0.0 .def_293)))
(let ((.def_321 (not .def_294)))
(let ((.def_306 (+ .def_296 .def_305)))
(let ((.def_307 (<= 0.0 .def_306)))
(let ((.def_322 (and .def_307 .def_321)))
(let ((.def_317 (<= b.speed_y__AT1 0.0 )))
(let ((.def_264 (<= 0.0 b.y__AT1)))
(let ((.def_320 (or .def_264 .def_317)))
(let ((.def_323 (or .def_320 .def_322)))
(let ((.def_316 (<= b.y__AT1 0.0 )))
(let ((.def_318 (and .def_316 .def_317)))
(let ((.def_311 (<= .def_306 0.0 )))
(let ((.def_312 (not .def_311)))
(let ((.def_309 (= .def_293 0.0 )))
(let ((.def_310 (not .def_309)))
(let ((.def_313 (or .def_310 .def_312)))
(let ((.def_308 (or .def_294 .def_307)))
(let ((.def_314 (and .def_308 .def_313)))
(let ((.def_297 (* b.speed_y__AT1 .def_296)))
(let ((.def_298 (* 98.0 b.y__AT1)))
(let ((.def_300 (+ .def_298 .def_297)))
(let ((.def_303 (<= .def_300 0.0 )))
(let ((.def_304 (not .def_303)))
(let ((.def_315 (or .def_304 .def_314)))
(let ((.def_319 (or .def_315 .def_318)))
(let ((.def_324 (and .def_319 .def_323)))
(let ((.def_301 (<= 0.0 .def_300)))
(let ((.def_302 (not .def_301)))
(let ((.def_325 (or .def_302 .def_324)))
(let ((.def_284 (not .def_283)))
(let ((.def_295 (or .def_284 .def_294)))
(let ((.def_326 (and .def_295 .def_325)))
(let ((.def_327 (or .def_281 .def_326)))
(let ((.def_38 (not b.counter.0__AT0)))
(let ((.def_273 (or b.counter.1__AT0 .def_38)))
(let ((.def_274 (or b.counter.2__AT0 .def_273)))
(let ((.def_41 (not b.counter.2__AT0)))
(let ((.def_36 (not b.counter.1__AT0)))
(let ((.def_39 (and .def_36 .def_38)))
(let ((.def_272 (or .def_39 .def_41)))
(let ((.def_275 (and .def_272 .def_274)))
(let ((.def_276 (or b.counter.3__AT0 .def_275)))
(let ((.def_269 (or .def_39 b.counter.2__AT0)))
(let ((.def_268 (or .def_36 .def_41)))
(let ((.def_270 (and .def_268 .def_269)))
(let ((.def_44 (not b.counter.3__AT0)))
(let ((.def_271 (or .def_44 .def_270)))
(let ((.def_277 (and .def_271 .def_276)))
(let ((.def_265 (and .def_67 .def_264)))
(let ((.def_262 (or .def_259 .def_261)))
(let ((.def_252 (or .def_139 .def_151)))
(let ((.def_256 (or b.counter.3__AT1 .def_252)))
(let ((.def_253 (or b.counter.2__AT1 .def_252)))
(let ((.def_251 (or .def_146 .def_151)))
(let ((.def_254 (and .def_251 .def_253)))
(let ((.def_255 (or .def_161 .def_254)))
(let ((.def_257 (and .def_255 .def_256)))
(let ((.def_263 (and .def_257 .def_262)))
(let ((.def_266 (and .def_263 .def_265)))
(let ((.def_76 (<= 0.0 b.delta__AT0)))
(let ((.def_57 (not b.EVENT.0__AT0)))
(let ((.def_55 (not b.EVENT.1__AT0)))
(let ((.def_73 (and .def_55 .def_57)))
(let ((.def_74 (not .def_73)))
(let ((.def_247 (or .def_74 .def_76)))
(let ((.def_248 (or b.EVENT.1__AT0 .def_247)))
(let ((.def_183 (= b.counter.0__AT0 b.counter.0__AT1)))
(let ((.def_181 (= b.counter.1__AT0 b.counter.1__AT1)))
(let ((.def_179 (= b.counter.2__AT0 b.counter.2__AT1)))
(let ((.def_178 (= b.counter.3__AT0 b.counter.3__AT1)))
(let ((.def_180 (and .def_178 .def_179)))
(let ((.def_182 (and .def_180 .def_181)))
(let ((.def_184 (and .def_182 .def_183)))
(let ((.def_244 (or .def_74 .def_184)))
(let ((.def_245 (or b.EVENT.1__AT0 .def_244)))
(let ((.def_236 (* (- 5.0) b.speed_y__AT1)))
(let ((.def_103 (* (- 49.0) b.delta__AT0)))
(let ((.def_237 (+ .def_103 .def_236)))
(let ((.def_92 (* 5.0 b.speed_y__AT0)))
(let ((.def_238 (+ .def_92 .def_237)))
(let ((.def_239 (= .def_238 0.0 )))
(let ((.def_225 (* b.speed_y__AT0 b.delta__AT0)))
(let ((.def_226 (* 10.0 .def_225)))
(let ((.def_223 (* b.delta__AT0 b.delta__AT0)))
(let ((.def_224 (* (- 49.0) .def_223)))
(let ((.def_227 (+ .def_224 .def_226)))
(let ((.def_229 (* (- 10.0) b.y__AT1)))
(let ((.def_232 (+ .def_229 .def_227)))
(let ((.def_86 (* 10.0 b.y__AT0)))
(let ((.def_233 (+ .def_86 .def_232)))
(let ((.def_234 (= .def_233 0.0 )))
(let ((.def_240 (and .def_234 .def_239)))
(let ((.def_241 (or .def_74 .def_240)))
(let ((.def_189 (= b.y__AT0 b.y__AT1)))
(let ((.def_177 (= b.speed_y__AT0 b.speed_y__AT1)))
(let ((.def_220 (and .def_177 .def_189)))
(let ((.def_217 (= b.delta__AT0 0.0 )))
(let ((.def_218 (and .def_73 .def_217)))
(let ((.def_219 (not .def_218)))
(let ((.def_221 (or .def_219 .def_220)))
(let ((.def_222 (or b.EVENT.1__AT0 .def_221)))
(let ((.def_242 (and .def_222 .def_241)))
(let ((.def_199 (= b.time__AT0 b.time__AT1)))
(let ((.def_211 (and .def_189 .def_199)))
(let ((.def_212 (and .def_177 .def_211)))
(let ((.def_213 (and .def_184 .def_212)))
(let ((.def_214 (or .def_55 .def_213)))
(let ((.def_202 (* (- 1.0) b.time__AT1)))
(let ((.def_205 (+ b.delta__AT0 .def_202)))
(let ((.def_206 (+ b.time__AT0 .def_205)))
(let ((.def_207 (= .def_206 0.0 )))
(let ((.def_208 (or .def_74 .def_207)))
(let ((.def_209 (or b.EVENT.1__AT0 .def_208)))
(let ((.def_200 (or .def_73 .def_199)))
(let ((.def_201 (or b.EVENT.1__AT0 .def_200)))
(let ((.def_210 (and .def_201 .def_209)))
(let ((.def_215 (and .def_210 .def_214)))
(let ((.def_195 (= .def_74 b.event_is_timed__AT1)))
(let ((.def_193 (= b.event_is_timed__AT0 .def_73)))
(let ((.def_196 (and .def_193 .def_195)))
(let ((.def_185 (and .def_177 .def_184)))
(let ((.def_128 (<= 0.0 b.speed_y__AT0)))
(let ((.def_129 (not .def_128)))
(let ((.def_127 (= b.y__AT0 0.0 )))
(let ((.def_130 (and .def_127 .def_129)))
(let ((.def_186 (or .def_130 .def_185)))
(let ((.def_152 (or b.counter.0__AT0 .def_151)))
(let ((.def_150 (or .def_38 b.counter.0__AT1)))
(let ((.def_153 (and .def_150 .def_152)))
(let ((.def_154 (and .def_139 .def_153)))
(let ((.def_155 (or b.counter.1__AT0 .def_154)))
(let ((.def_149 (or .def_36 b.counter.1__AT1)))
(let ((.def_156 (and .def_149 .def_155)))
(let ((.def_169 (and .def_146 .def_156)))
(let ((.def_170 (or b.counter.2__AT0 .def_169)))
(let ((.def_164 (and .def_38 .def_139)))
(let ((.def_165 (or b.counter.1__AT0 .def_164)))
(let ((.def_166 (and .def_149 .def_165)))
(let ((.def_167 (and b.counter.2__AT1 .def_166)))
(let ((.def_168 (or .def_41 .def_167)))
(let ((.def_171 (and .def_168 .def_170)))
(let ((.def_172 (and b.counter.3__AT1 .def_171)))
(let ((.def_173 (or b.counter.3__AT0 .def_172)))
(let ((.def_157 (and b.counter.2__AT1 .def_156)))
(let ((.def_158 (or b.counter.2__AT0 .def_157)))
(let ((.def_143 (or b.counter.1__AT0 b.counter.1__AT1)))
(let ((.def_141 (and .def_139 b.counter.0__AT1)))
(let ((.def_142 (or .def_36 .def_141)))
(let ((.def_144 (and .def_142 .def_143)))
(let ((.def_147 (and .def_144 .def_146)))
(let ((.def_148 (or .def_41 .def_147)))
(let ((.def_159 (and .def_148 .def_158)))
(let ((.def_162 (and .def_159 .def_161)))
(let ((.def_163 (or .def_44 .def_162)))
(let ((.def_174 (and .def_163 .def_173)))
(let ((.def_132 (* (- 1.0) b.speed_y__AT0)))
(let ((.def_135 (* .def_132 .def_134)))
(let ((.def_137 (= .def_135 b.speed_y__AT1)))
(let ((.def_175 (and .def_137 .def_174)))
(let ((.def_131 (not .def_130)))
(let ((.def_176 (or .def_131 .def_175)))
(let ((.def_187 (and .def_176 .def_186)))
(let ((.def_190 (and .def_187 .def_189)))
(let ((.def_191 (or .def_73 .def_190)))
(let ((.def_192 (or b.EVENT.1__AT0 .def_191)))
(let ((.def_197 (and .def_192 .def_196)))
(let ((.def_216 (and .def_197 .def_215)))
(let ((.def_243 (and .def_216 .def_242)))
(let ((.def_246 (and .def_243 .def_245)))
(let ((.def_249 (and .def_246 .def_248)))
(let ((.def_250 (and .def_55 .def_249)))
(let ((.def_267 (and .def_250 .def_266)))
(let ((.def_278 (and .def_267 .def_277)))
(let ((.def_81 (* 49.0 b.delta__AT0)))
(let ((.def_82 (* b.delta__AT0 .def_81)))
(let ((.def_84 (* (- 1.0) .def_82)))
(let ((.def_78 (* 10.0 b.speed_y__AT0)))
(let ((.def_79 (* b.delta__AT0 .def_78)))
(let ((.def_85 (+ .def_79 .def_84)))
(let ((.def_88 (+ .def_86 .def_85)))
(let ((.def_89 (<= 0.0 .def_88)))
(let ((.def_119 (not .def_89)))
(let ((.def_104 (+ .def_92 .def_103)))
(let ((.def_105 (<= 0.0 .def_104)))
(let ((.def_120 (and .def_105 .def_119)))
(let ((.def_115 (<= b.speed_y__AT0 0.0 )))
(let ((.def_68 (<= 0.0 b.y__AT0)))
(let ((.def_118 (or .def_68 .def_115)))
(let ((.def_121 (or .def_118 .def_120)))
(let ((.def_114 (<= b.y__AT0 0.0 )))
(let ((.def_116 (and .def_114 .def_115)))
(let ((.def_109 (<= .def_104 0.0 )))
(let ((.def_110 (not .def_109)))
(let ((.def_107 (= .def_88 0.0 )))
(let ((.def_108 (not .def_107)))
(let ((.def_111 (or .def_108 .def_110)))
(let ((.def_106 (or .def_89 .def_105)))
(let ((.def_112 (and .def_106 .def_111)))
(let ((.def_93 (* b.speed_y__AT0 .def_92)))
(let ((.def_95 (* 98.0 b.y__AT0)))
(let ((.def_97 (+ .def_95 .def_93)))
(let ((.def_100 (<= .def_97 0.0 )))
(let ((.def_101 (not .def_100)))
(let ((.def_113 (or .def_101 .def_112)))
(let ((.def_117 (or .def_113 .def_116)))
(let ((.def_122 (and .def_117 .def_121)))
(let ((.def_98 (<= 0.0 .def_97)))
(let ((.def_99 (not .def_98)))
(let ((.def_123 (or .def_99 .def_122)))
(let ((.def_77 (not .def_76)))
(let ((.def_90 (or .def_77 .def_89)))
(let ((.def_124 (and .def_90 .def_123)))
(let ((.def_125 (or .def_74 .def_124)))
(let ((.def_69 (and .def_67 .def_68)))
(let ((.def_58 (or .def_55 .def_57)))
(let ((.def_48 (or .def_36 .def_38)))
(let ((.def_52 (or b.counter.3__AT0 .def_48)))
(let ((.def_49 (or b.counter.2__AT0 .def_48)))
(let ((.def_47 (or .def_38 .def_41)))
(let ((.def_50 (and .def_47 .def_49)))
(let ((.def_51 (or .def_44 .def_50)))
(let ((.def_53 (and .def_51 .def_52)))
(let ((.def_59 (and .def_53 .def_58)))
(let ((.def_70 (and .def_59 .def_69)))
(let ((.def_42 (and .def_39 .def_41)))
(let ((.def_45 (and .def_42 .def_44)))
(let ((.def_33 (= b.speed_y__AT0 0.0 )))
(let ((.def_30 (= b.y__AT0 10.0 )))
(let ((.def_25 (= b.time__AT0 0.0 )))
(let ((.def_27 (and .def_25 b.event_is_timed__AT0)))
(let ((.def_31 (and .def_27 .def_30)))
(let ((.def_34 (and .def_31 .def_33)))
(let ((.def_46 (and .def_34 .def_45)))
(let ((.def_71 (and .def_46 .def_70)))
(let ((.def_17 (or b.counter.1__AT2 .def_9)))
(let ((.def_18 (or b.counter.2__AT2 .def_17)))
(let ((.def_10 (and .def_6 .def_9)))
(let ((.def_16 (or .def_4 .def_10)))
(let ((.def_19 (and .def_16 .def_18)))
(let ((.def_20 (or b.counter.3__AT2 .def_19)))
(let ((.def_11 (or b.counter.2__AT2 .def_10)))
(let ((.def_7 (or .def_4 .def_6)))
(let ((.def_12 (and .def_7 .def_11)))
(let ((.def_15 (or .def_12 .def_14)))
(let ((.def_21 (and .def_15 .def_20)))
(let ((.def_22 (not .def_21)))
(let ((.def_72 (and .def_22 .def_71)))
(let ((.def_126 (and .def_72 .def_125)))
(let ((.def_279 (and .def_126 .def_278)))
(let ((.def_328 (and .def_279 .def_327)))
(let ((.def_470 (and .def_328 .def_469)))
(let ((.def_519 (and .def_470 .def_518)))
.def_519)))))))))))))))))))))))))))))))))))))))))))))))))))))))))))))))))))))))))))))))))))))))))))))))))))))))))))))))))))))))))))))))))))))))))))))))))))))))))))))))))))))))))))))))))))))))))))))))))))))))))))))))))))))))))))))))))))))))))))))))))))))))))))))))))))))))))))))))))))))))))))))))))))))))))))))))))))))))))))))))))))))))))))))))))))))))))))))))))))))))))))))))))))))))))))))))))))))))))))))))))))))))))))))))))))))))))))))))))))))))))))))))))))))))))
(check-sat)
(exit)
